20190920 274500.00 274500.00
20180607 274500.00 265800.00
20170920 211166.62 204493.85
20170630 211166.62 204493.85
20160920 211166.62 181091.60
20151231 181091.60 181091.60
20150630 181091.60 181091.60
